c description: Random 3-CNF over 25 variables and 107 clauses
c generator: CNFgen (0.9.2)
c copyright: (C) 2012-2022 Massimo Lauria <massimo.lauria@uniroma1.it>
c url: https://massimolauria.net/cnfgen
c command line: cnfgen --output CNF_4.28/25_bit_107_275.cnf randkcnf 3 25 107
c
p cnf 25 107
-1 4 17 0
10 -17 25 0
1 18 19 0
-1 -6 10 0
13 14 15 0
2 17 18 0
-8 -13 -17 0
-9 13 17 0
9 14 25 0
2 21 -22 0
3 -11 -16 0
5 -13 -14 0
-3 -11 20 0
-5 8 12 0
-3 8 -25 0
-3 -18 23 0
12 -16 -23 0
-4 17 23 0
21 -24 -25 0
-1 5 14 0
-3 5 17 0
10 16 -20 0
-2 18 -20 0
-6 -12 -17 0
-2 13 -16 0
5 7 -21 0
7 19 -23 0
-14 -18 21 0
-19 20 25 0
4 20 25 0
4 6 -20 0
-1 23 -24 0
8 16 -20 0
6 -14 17 0
1 -19 -24 0
-5 9 -11 0
-4 -15 25 0
9 14 -18 0
-16 19 25 0
4 16 17 0
6 16 -20 0
-6 9 13 0
-2 9 -17 0
21 -22 23 0
-6 21 24 0
3 11 22 0
2 12 -14 0
7 18 20 0
13 18 22 0
-3 -10 15 0
-3 -4 9 0
5 17 -24 0
2 -11 -12 0
2 -8 -16 0
-4 6 17 0
-8 -13 -19 0
-16 -20 -21 0
-6 8 -21 0
-6 -14 25 0
-3 6 -25 0
-2 23 -25 0
-12 -19 -21 0
5 7 25 0
-1 -7 -25 0
-3 5 -14 0
2 18 -19 0
-3 19 -22 0
-2 16 -19 0
6 16 -25 0
2 -5 13 0
-11 12 -25 0
6 8 -13 0
2 13 -16 0
1 15 -19 0
2 13 15 0
10 -16 21 0
-3 4 9 0
11 15 19 0
-5 -6 -22 0
-10 -17 21 0
-1 11 -19 0
7 17 -20 0
8 -13 22 0
-3 20 22 0
-9 14 -15 0
4 -10 -12 0
-8 -10 -17 0
1 2 -9 0
-4 -10 -17 0
-8 -12 -15 0
-6 10 22 0
-6 -10 15 0
-1 -10 -23 0
-9 11 24 0
-11 -12 14 0
-2 -13 23 0
-9 -15 -21 0
-8 -11 18 0
-3 -12 15 0
14 16 -23 0
-6 -15 23 0
-3 -9 -15 0
-11 15 19 0
3 -6 8 0
4 6 24 0
6 23 25 0
-14 -19 24 0
